p tw 20 53
0 1
0 14
0 5
0 16
0 19
1 3
1 7
1 2
1 19
1 17
2 3
2 8
2 18
2 13
2 17
3 6
3 13
3 17
3 7
3 10
3 18
3 15
4 5
4 11
4 9
4 6
4 14
4 19
5 12
5 16
5 15
5 17
6 8
6 13
6 14
6 12
6 11
8 10
8 9
8 16
8 15
9 10
9 14
9 11
9 15
10 15
12 16
12 13
13 15
15 17
16 17
17 18
18 19
